/* Objective function */
max: +2000 C1 +2000 C2 +2000 C3 +2500 C4 +2500 C5 +2500 C6 +5000 C7 +5000 C8 +5000 C9 +3500 C10 +3500 C11
 +3500 C12;

/* Constraints */
+C1 +C2 +C3 <= 18;
+C4 +C5 +C6 <= 10;
+C7 +C8 +C9 <= 5;
+C10 +C11 +C12 <= 20;
+C1 +C4 +C7 +C10 <= 10;
+C2 +C5 +C8 +C11 <= 8;
+C3 +C6 +C9 +C12 <= 12;
+400 C1 +300 C4 +200 C7 +500 C10 <= 5000;
+400 C2 +300 C5 +200 C8 +500 C11 <= 4000;
+400 C3 +300 C6 +200 C9 +500 C12 <= 8000;
